1 8 36
2 48 4
3 16 7
4 31 48
5 28 30
6 41 24
7 50 13
8 6 31
9 1 24
10 27 38
11 48 49
12 0 44
13 28 17
14 46 14
15 37 6
16 20 1
17 1 1
18 41 34
19 0 24
20 43 13
21 27 46
22 1 33
23 14 48
24 28 31
25 35 14
26 22 14
27 43 14
28 48 29
29 18 1
30 26 35
31 41 6
32 11 40
33 46 18
34 7 47
35 21 46
36 45 32
37 27 32
38 42 12
39 19 18
40 37 31
41 32 25
42 37 2
43 30 15
44 47 25
45 26 42
46 11 23
47 35 44
48 49 43
49 47 23
50 5 28
